\ENCODING=ISO-8859-1
\Problem name: burma14

Minimize
 obj1: 0 x(1,1) + 154 x(1,2) + 560 x(1,3) + 707 x(1,4) + 967 x(1,5)
       + 582 x(1,6) + 456 x(1,7) + 71 x(1,8) + 161 x(1,9) + 372 x(1,10)
       + 170 x(1,11) + 501 x(1,12) + 342 x(1,13) + 427 x(1,14) + 154 x(2,1)
       + 0 x(2,2) + 459 x(2,3) + 664 x(2,4) + 998 x(2,5) + 599 x(2,6)
       + 508 x(2,7) + 197 x(2,8) + 312 x(2,9) + 479 x(2,10) + 317 x(2,11)
       + 496 x(2,12) + 417 x(2,13) + 379 x(2,14) + 560 x(3,1) + 459 x(3,2)
       + 0 x(3,3) + 314 x(3,4) + 789 x(3,5) + 451 x(3,6) + 507 x(3,7)
       + 548 x(3,8) + 701 x(3,9) + 928 x(3,10) + 721 x(3,11) + 343 x(3,12)
       + 525 x(3,13) + 212 x(3,14) + 707 x(4,1) + 664 x(4,2) + 314 x(4,3)
       + 0 x(4,4) + 491 x(4,5) + 265 x(4,6) + 411 x(4,7) + 664 x(4,8)
       + 805 x(4,9) + 1070 x(4,10) + 832 x(4,11) + 239 x(4,12) + 500 x(4,13)
       + 287 x(4,14) + 967 x(5,1) + 998 x(5,2) + 789 x(5,3) + 491 x(5,4)
       + 0 x(5,5) + 401 x(5,6) + 514 x(5,7) + 902 x(5,8) + 990 x(5,9)
       + 1262 x(5,10) + 1022 x(5,11) + 513 x(5,12) + 636 x(5,13) + 667 x(5,14)
       + 582 x(6,1) + 599 x(6,2) + 451 x(6,3) + 265 x(6,4) + 401 x(6,5)
       + 0 x(6,6) + 168 x(6,7) + 522 x(6,8) + 635 x(6,9) + 910 x(6,10)
       + 665 x(6,11) + 120 x(6,12) + 285 x(6,13) + 281 x(6,14) + 456 x(7,1)
       + 508 x(7,2) + 507 x(7,3) + 411 x(7,4) + 514 x(7,5) + 168 x(7,6)
       + 0 x(7,7) + 389 x(7,8) + 482 x(7,9) + 757 x(7,10) + 513 x(7,11)
       + 185 x(7,12) + 125 x(7,13) + 300 x(7,14) + 71 x(8,1) + 197 x(8,2)
       + 548 x(8,3) + 664 x(8,4) + 902 x(8,5) + 522 x(8,6) + 389 x(8,7)
       + 0 x(8,8) + 155 x(8,9) + 407 x(8,10) + 176 x(8,11) + 449 x(8,12)
       + 274 x(8,13) + 393 x(8,14) + 161 x(9,1) + 312 x(9,2) + 701 x(9,3)
       + 805 x(9,4) + 990 x(9,5) + 635 x(9,6) + 482 x(9,7) + 155 x(9,8)
       + 0 x(9,9) + 277 x(9,10) + 33 x(9,11) + 578 x(9,12) + 358 x(9,13)
       + 542 x(9,14) + 372 x(10,1) + 479 x(10,2) + 928 x(10,3) + 1070 x(10,4)
       + 1262 x(10,5) + 910 x(10,6) + 757 x(10,7) + 407 x(10,8) + 277 x(10,9)
       + 0 x(10,10) + 246 x(10,11) + 850 x(10,12) + 633 x(10,13) + 796 x(10,14)
       + 170 x(11,1) + 317 x(11,2) + 721 x(11,3) + 832 x(11,4) + 1022 x(11,5)
       + 665 x(11,6) + 513 x(11,7) + 176 x(11,8) + 33 x(11,9) + 246 x(11,10)
       + 0 x(11,11) + 607 x(11,12) + 389 x(11,13) + 566 x(11,14) + 501 x(12,1)
       + 496 x(12,2) + 343 x(12,3) + 239 x(12,4) + 513 x(12,5) + 120 x(12,6)
       + 185 x(12,7) + 449 x(12,8) + 578 x(12,9) + 850 x(12,10) + 607 x(12,11)
       + 0 x(12,12) + 261 x(12,13) + 162 x(12,14) + 342 x(13,1) + 417 x(13,2)
       + 525 x(13,3) + 500 x(13,4) + 636 x(13,5) + 285 x(13,6) + 125 x(13,7)
       + 274 x(13,8) + 358 x(13,9) + 633 x(13,10) + 389 x(13,11) + 261 x(13,12)
       + 0 x(13,13) + 316 x(13,14) + 427 x(14,1) + 379 x(14,2) + 212 x(14,3)
       + 287 x(14,4) + 667 x(14,5) + 281 x(14,6) + 300 x(14,7) + 393 x(14,8)
       + 542 x(14,9) + 796 x(14,10) + 566 x(14,11) + 162 x(14,12)
       + 316 x(14,13) + 0 x(14,14) + 0 y(1,1) + 0 y(2,2) + 0 y(3,3) + 0 y(4,4)
       + 0 y(5,5) + 0 y(6,6) + 0 y(7,7) + 0 y(8,8) + 0 y(9,9) + 0 y(10,10)
       + 0 y(11,11) + 0 y(12,12) + 0 y(13,13) + 0 y(14,14)
Subject To
 degree(1):              x(1,2) + x(1,3) + x(1,4) + x(1,5) + x(1,6) + x(1,7)
                         + x(1,8) + x(1,9) + x(1,10) + x(1,11) + x(1,12)
                         + x(1,13) + x(1,14)  = 1
 degree(2):              x(2,1) + x(2,3) + x(2,4) + x(2,5) + x(2,6) + x(2,7)
                         + x(2,8) + x(2,9) + x(2,10) + x(2,11) + x(2,12)
                         + x(2,13) + x(2,14)  = 1
 degree(3):              x(3,1) + x(3,2) + x(3,4) + x(3,5) + x(3,6) + x(3,7)
                         + x(3,8) + x(3,9) + x(3,10) + x(3,11) + x(3,12)
                         + x(3,13) + x(3,14)  = 1
 degree(4):              x(4,1) + x(4,2) + x(4,3) + x(4,5) + x(4,6) + x(4,7)
                         + x(4,8) + x(4,9) + x(4,10) + x(4,11) + x(4,12)
                         + x(4,13) + x(4,14)  = 1
 degree(5):              x(5,1) + x(5,2) + x(5,3) + x(5,4) + x(5,6) + x(5,7)
                         + x(5,8) + x(5,9) + x(5,10) + x(5,11) + x(5,12)
                         + x(5,13) + x(5,14)  = 1
 degree(6):              x(6,1) + x(6,2) + x(6,3) + x(6,4) + x(6,5) + x(6,7)
                         + x(6,8) + x(6,9) + x(6,10) + x(6,11) + x(6,12)
                         + x(6,13) + x(6,14)  = 1
 degree(7):              x(7,1) + x(7,2) + x(7,3) + x(7,4) + x(7,5) + x(7,6)
                         + x(7,8) + x(7,9) + x(7,10) + x(7,11) + x(7,12)
                         + x(7,13) + x(7,14)  = 1
 degree(8):              x(8,1) + x(8,2) + x(8,3) + x(8,4) + x(8,5) + x(8,6)
                         + x(8,7) + x(8,9) + x(8,10) + x(8,11) + x(8,12)
                         + x(8,13) + x(8,14)  = 1
 degree(9):              x(9,1) + x(9,2) + x(9,3) + x(9,4) + x(9,5) + x(9,6)
                         + x(9,7) + x(9,8) + x(9,10) + x(9,11) + x(9,12)
                         + x(9,13) + x(9,14)  = 1
 degree(10):             x(10,1) + x(10,2) + x(10,3) + x(10,4) + x(10,5)
                         + x(10,6) + x(10,7) + x(10,8) + x(10,9) + x(10,11)
                         + x(10,12) + x(10,13) + x(10,14)  = 1
 degree(11):             x(11,1) + x(11,2) + x(11,3) + x(11,4) + x(11,5)
                         + x(11,6) + x(11,7) + x(11,8) + x(11,9) + x(11,10)
                         + x(11,12) + x(11,13) + x(11,14)  = 1
 degree(12):             x(12,1) + x(12,2) + x(12,3) + x(12,4) + x(12,5)
                         + x(12,6) + x(12,7) + x(12,8) + x(12,9) + x(12,10)
                         + x(12,11) + x(12,13) + x(12,14)  = 1
 degree(13):             x(13,1) + x(13,2) + x(13,3) + x(13,4) + x(13,5)
                         + x(13,6) + x(13,7) + x(13,8) + x(13,9) + x(13,10)
                         + x(13,11) + x(13,12) + x(13,14)  = 1
 degree(14):             x(14,1) + x(14,2) + x(14,3) + x(14,4) + x(14,5)
                         + x(14,6) + x(14,7) + x(14,8) + x(14,9) + x(14,10)
                         + x(14,11) + x(14,12) + x(14,13)  = 1
 degree(15):             x(2,1) + x(3,1) + x(4,1) + x(5,1) + x(6,1) + x(7,1)
                         + x(8,1) + x(9,1) + x(10,1) + x(11,1) + x(12,1)
                         + x(13,1) + x(14,1)  = 1
 degree(16):             x(1,2) + x(3,2) + x(4,2) + x(5,2) + x(6,2) + x(7,2)
                         + x(8,2) + x(9,2) + x(10,2) + x(11,2) + x(12,2)
                         + x(13,2) + x(14,2)  = 1
 degree(17):             x(1,3) + x(2,3) + x(4,3) + x(5,3) + x(6,3) + x(7,3)
                         + x(8,3) + x(9,3) + x(10,3) + x(11,3) + x(12,3)
                         + x(13,3) + x(14,3)  = 1
 degree(18):             x(1,4) + x(2,4) + x(3,4) + x(5,4) + x(6,4) + x(7,4)
                         + x(8,4) + x(9,4) + x(10,4) + x(11,4) + x(12,4)
                         + x(13,4) + x(14,4)  = 1
 degree(19):             x(1,5) + x(2,5) + x(3,5) + x(4,5) + x(6,5) + x(7,5)
                         + x(8,5) + x(9,5) + x(10,5) + x(11,5) + x(12,5)
                         + x(13,5) + x(14,5)  = 1
 degree(20):             x(1,6) + x(2,6) + x(3,6) + x(4,6) + x(5,6) + x(7,6)
                         + x(8,6) + x(9,6) + x(10,6) + x(11,6) + x(12,6)
                         + x(13,6) + x(14,6)  = 1
 degree(21):             x(1,7) + x(2,7) + x(3,7) + x(4,7) + x(5,7) + x(6,7)
                         + x(8,7) + x(9,7) + x(10,7) + x(11,7) + x(12,7)
                         + x(13,7) + x(14,7)  = 1
 degree(22):             x(1,8) + x(2,8) + x(3,8) + x(4,8) + x(5,8) + x(6,8)
                         + x(7,8) + x(9,8) + x(10,8) + x(11,8) + x(12,8)
                         + x(13,8) + x(14,8)  = 1
 degree(23):             x(1,9) + x(2,9) + x(3,9) + x(4,9) + x(5,9) + x(6,9)
                         + x(7,9) + x(8,9) + x(10,9) + x(11,9) + x(12,9)
                         + x(13,9) + x(14,9)  = 1
 degree(24):             x(1,10) + x(2,10) + x(3,10) + x(4,10) + x(5,10)
                         + x(6,10) + x(7,10) + x(8,10) + x(9,10) + x(11,10)
                         + x(12,10) + x(13,10) + x(14,10)  = 1
 degree(25):             x(1,11) + x(2,11) + x(3,11) + x(4,11) + x(5,11)
                         + x(6,11) + x(7,11) + x(8,11) + x(9,11) + x(10,11)
                         + x(12,11) + x(13,11) + x(14,11)  = 1
 degree(26):             x(1,12) + x(2,12) + x(3,12) + x(4,12) + x(5,12)
                         + x(6,12) + x(7,12) + x(8,12) + x(9,12) + x(10,12)
                         + x(11,12) + x(13,12) + x(14,12)  = 1
 degree(27):             x(1,13) + x(2,13) + x(3,13) + x(4,13) + x(5,13)
                         + x(6,13) + x(7,13) + x(8,13) + x(9,13) + x(10,13)
                         + x(11,13) + x(12,13) + x(14,13)  = 1
 degree(28):             x(1,14) + x(2,14) + x(3,14) + x(4,14) + x(5,14)
                         + x(6,14) + x(7,14) + x(8,14) + x(9,14) + x(10,14)
                         + x(11,14) + x(12,14) + x(13,14)  = 1
 inoutflow(1):           y(1,2) - y(2,1) - y(2,3) - y(2,4) - y(2,5) - y(2,6)
                         - y(2,7) - y(2,8) - y(2,9) - y(2,10) - y(2,11)
                         - y(2,12) - y(2,13) - y(2,14) + y(3,2) + y(4,2)
                         + y(5,2) + y(6,2) + y(7,2) + y(8,2) + y(9,2) + y(10,2)
                         + y(11,2) + y(12,2) + y(13,2) + y(14,2)  = 1
 inoutflow(2):           y(1,3) + y(2,3) - y(3,1) - y(3,2) - y(3,4) - y(3,5)
                         - y(3,6) - y(3,7) - y(3,8) - y(3,9) - y(3,10)
                         - y(3,11) - y(3,12) - y(3,13) - y(3,14) + y(4,3)
                         + y(5,3) + y(6,3) + y(7,3) + y(8,3) + y(9,3) + y(10,3)
                         + y(11,3) + y(12,3) + y(13,3) + y(14,3)  = 1
 inoutflow(3):           y(1,4) + y(2,4) + y(3,4) - y(4,1) - y(4,2) - y(4,3)
                         - y(4,5) - y(4,6) - y(4,7) - y(4,8) - y(4,9) - y(4,10)
                         - y(4,11) - y(4,12) - y(4,13) - y(4,14) + y(5,4)
                         + y(6,4) + y(7,4) + y(8,4) + y(9,4) + y(10,4)
                         + y(11,4) + y(12,4) + y(13,4) + y(14,4)  = 1
 inoutflow(4):           y(1,5) + y(2,5) + y(3,5) + y(4,5) - y(5,1) - y(5,2)
                         - y(5,3) - y(5,4) - y(5,6) - y(5,7) - y(5,8) - y(5,9)
                         - y(5,10) - y(5,11) - y(5,12) - y(5,13) - y(5,14)
                         + y(6,5) + y(7,5) + y(8,5) + y(9,5) + y(10,5)
                         + y(11,5) + y(12,5) + y(13,5) + y(14,5)  = 1
 inoutflow(5):           y(1,6) + y(2,6) + y(3,6) + y(4,6) + y(5,6) - y(6,1)
                         - y(6,2) - y(6,3) - y(6,4) - y(6,5) - y(6,7) - y(6,8)
                         - y(6,9) - y(6,10) - y(6,11) - y(6,12) - y(6,13)
                         - y(6,14) + y(7,6) + y(8,6) + y(9,6) + y(10,6)
                         + y(11,6) + y(12,6) + y(13,6) + y(14,6)  = 1
 inoutflow(6):           y(1,7) + y(2,7) + y(3,7) + y(4,7) + y(5,7) + y(6,7)
                         - y(7,1) - y(7,2) - y(7,3) - y(7,4) - y(7,5) - y(7,6)
                         - y(7,8) - y(7,9) - y(7,10) - y(7,11) - y(7,12)
                         - y(7,13) - y(7,14) + y(8,7) + y(9,7) + y(10,7)
                         + y(11,7) + y(12,7) + y(13,7) + y(14,7)  = 1
 inoutflow(7):           y(1,8) + y(2,8) + y(3,8) + y(4,8) + y(5,8) + y(6,8)
                         + y(7,8) - y(8,1) - y(8,2) - y(8,3) - y(8,4) - y(8,5)
                         - y(8,6) - y(8,7) - y(8,9) - y(8,10) - y(8,11)
                         - y(8,12) - y(8,13) - y(8,14) + y(9,8) + y(10,8)
                         + y(11,8) + y(12,8) + y(13,8) + y(14,8)  = 1
 inoutflow(8):           y(1,9) + y(2,9) + y(3,9) + y(4,9) + y(5,9) + y(6,9)
                         + y(7,9) + y(8,9) - y(9,1) - y(9,2) - y(9,3) - y(9,4)
                         - y(9,5) - y(9,6) - y(9,7) - y(9,8) - y(9,10)
                         - y(9,11) - y(9,12) - y(9,13) - y(9,14) + y(10,9)
                         + y(11,9) + y(12,9) + y(13,9) + y(14,9)  = 1
 inoutflow(9):           y(1,10) + y(2,10) + y(3,10) + y(4,10) + y(5,10)
                         + y(6,10) + y(7,10) + y(8,10) + y(9,10) - y(10,1)
                         - y(10,2) - y(10,3) - y(10,4) - y(10,5) - y(10,6)
                         - y(10,7) - y(10,8) - y(10,9) - y(10,11) - y(10,12)
                         - y(10,13) - y(10,14) + y(11,10) + y(12,10) + y(13,10)
                         + y(14,10)  = 1
 inoutflow(10):          y(1,11) + y(2,11) + y(3,11) + y(4,11) + y(5,11)
                         + y(6,11) + y(7,11) + y(8,11) + y(9,11) + y(10,11)
                         - y(11,1) - y(11,2) - y(11,3) - y(11,4) - y(11,5)
                         - y(11,6) - y(11,7) - y(11,8) - y(11,9) - y(11,10)
                         - y(11,12) - y(11,13) - y(11,14) + y(12,11) + y(13,11)
                         + y(14,11)  = 1
 inoutflow(11):          y(1,12) + y(2,12) + y(3,12) + y(4,12) + y(5,12)
                         + y(6,12) + y(7,12) + y(8,12) + y(9,12) + y(10,12)
                         + y(11,12) - y(12,1) - y(12,2) - y(12,3) - y(12,4)
                         - y(12,5) - y(12,6) - y(12,7) - y(12,8) - y(12,9)
                         - y(12,10) - y(12,11) - y(12,13) - y(12,14) + y(13,12)
                         + y(14,12)  = 1
 inoutflow(12):          y(1,13) + y(2,13) + y(3,13) + y(4,13) + y(5,13)
                         + y(6,13) + y(7,13) + y(8,13) + y(9,13) + y(10,13)
                         + y(11,13) + y(12,13) - y(13,1) - y(13,2) - y(13,3)
                         - y(13,4) - y(13,5) - y(13,6) - y(13,7) - y(13,8)
                         - y(13,9) - y(13,10) - y(13,11) - y(13,12) - y(13,14)
                         + y(14,13)  = 1
 inoutflow(13):          y(1,14) + y(2,14) + y(3,14) + y(4,14) + y(5,14)
                         + y(6,14) + y(7,14) + y(8,14) + y(9,14) + y(10,14)
                         + y(11,14) + y(12,14) + y(13,14) - y(14,1) - y(14,2)
                         - y(14,3) - y(14,4) - y(14,5) - y(14,6) - y(14,7)
                         - y(14,8) - y(14,9) - y(14,10) - y(14,11) - y(14,12)
                         - y(14,13)  = 1
 node1constraint(1):     - 13 x(1,2) + y(1,2)  = 0
 node1constraint(2):     - 13 x(1,3) + y(1,3)  = 0
 node1constraint(3):     - 13 x(1,4) + y(1,4)  = 0
 node1constraint(4):     - 13 x(1,5) + y(1,5)  = 0
 node1constraint(5):     - 13 x(1,6) + y(1,6)  = 0
 node1constraint(6):     - 13 x(1,7) + y(1,7)  = 0
 node1constraint(7):     - 13 x(1,8) + y(1,8)  = 0
 node1constraint(8):     - 13 x(1,9) + y(1,9)  = 0
 node1constraint(9):     - 13 x(1,10) + y(1,10)  = 0
 node1constraint(10):    - 13 x(1,11) + y(1,11)  = 0
 node1constraint(11):    - 13 x(1,12) + y(1,12)  = 0
 node1constraint(12):    - 13 x(1,13) + y(1,13)  = 0
 node1constraint(13):    - 13 x(1,14) + y(1,14)  = 0
 linkingconstraint(1):   - 12 x(2,3) + y(2,3) <= 0
 linkingconstraint(2):   - 12 x(2,4) + y(2,4) <= 0
 linkingconstraint(3):   - 12 x(2,5) + y(2,5) <= 0
 linkingconstraint(4):   - 12 x(2,6) + y(2,6) <= 0
 linkingconstraint(5):   - 12 x(2,7) + y(2,7) <= 0
 linkingconstraint(6):   - 12 x(2,8) + y(2,8) <= 0
 linkingconstraint(7):   - 12 x(2,9) + y(2,9) <= 0
 linkingconstraint(8):   - 12 x(2,10) + y(2,10) <= 0
 linkingconstraint(9):   - 12 x(2,11) + y(2,11) <= 0
 linkingconstraint(10):  - 12 x(2,12) + y(2,12) <= 0
 linkingconstraint(11):  - 12 x(2,13) + y(2,13) <= 0
 linkingconstraint(12):  - 12 x(2,14) + y(2,14) <= 0
 linkingconstraint(13):  - 12 x(3,2) + y(3,2) <= 0
 linkingconstraint(14):  - 12 x(3,4) + y(3,4) <= 0
 linkingconstraint(15):  - 12 x(3,5) + y(3,5) <= 0
 linkingconstraint(16):  - 12 x(3,6) + y(3,6) <= 0
 linkingconstraint(17):  - 12 x(3,7) + y(3,7) <= 0
 linkingconstraint(18):  - 12 x(3,8) + y(3,8) <= 0
 linkingconstraint(19):  - 12 x(3,9) + y(3,9) <= 0
 linkingconstraint(20):  - 12 x(3,10) + y(3,10) <= 0
 linkingconstraint(21):  - 12 x(3,11) + y(3,11) <= 0
 linkingconstraint(22):  - 12 x(3,12) + y(3,12) <= 0
 linkingconstraint(23):  - 12 x(3,13) + y(3,13) <= 0
 linkingconstraint(24):  - 12 x(3,14) + y(3,14) <= 0
 linkingconstraint(25):  - 12 x(4,2) + y(4,2) <= 0
 linkingconstraint(26):  - 12 x(4,3) + y(4,3) <= 0
 linkingconstraint(27):  - 12 x(4,5) + y(4,5) <= 0
 linkingconstraint(28):  - 12 x(4,6) + y(4,6) <= 0
 linkingconstraint(29):  - 12 x(4,7) + y(4,7) <= 0
 linkingconstraint(30):  - 12 x(4,8) + y(4,8) <= 0
 linkingconstraint(31):  - 12 x(4,9) + y(4,9) <= 0
 linkingconstraint(32):  - 12 x(4,10) + y(4,10) <= 0
 linkingconstraint(33):  - 12 x(4,11) + y(4,11) <= 0
 linkingconstraint(34):  - 12 x(4,12) + y(4,12) <= 0
 linkingconstraint(35):  - 12 x(4,13) + y(4,13) <= 0
 linkingconstraint(36):  - 12 x(4,14) + y(4,14) <= 0
 linkingconstraint(37):  - 12 x(5,2) + y(5,2) <= 0
 linkingconstraint(38):  - 12 x(5,3) + y(5,3) <= 0
 linkingconstraint(39):  - 12 x(5,4) + y(5,4) <= 0
 linkingconstraint(40):  - 12 x(5,6) + y(5,6) <= 0
 linkingconstraint(41):  - 12 x(5,7) + y(5,7) <= 0
 linkingconstraint(42):  - 12 x(5,8) + y(5,8) <= 0
 linkingconstraint(43):  - 12 x(5,9) + y(5,9) <= 0
 linkingconstraint(44):  - 12 x(5,10) + y(5,10) <= 0
 linkingconstraint(45):  - 12 x(5,11) + y(5,11) <= 0
 linkingconstraint(46):  - 12 x(5,12) + y(5,12) <= 0
 linkingconstraint(47):  - 12 x(5,13) + y(5,13) <= 0
 linkingconstraint(48):  - 12 x(5,14) + y(5,14) <= 0
 linkingconstraint(49):  - 12 x(6,2) + y(6,2) <= 0
 linkingconstraint(50):  - 12 x(6,3) + y(6,3) <= 0
 linkingconstraint(51):  - 12 x(6,4) + y(6,4) <= 0
 linkingconstraint(52):  - 12 x(6,5) + y(6,5) <= 0
 linkingconstraint(53):  - 12 x(6,7) + y(6,7) <= 0
 linkingconstraint(54):  - 12 x(6,8) + y(6,8) <= 0
 linkingconstraint(55):  - 12 x(6,9) + y(6,9) <= 0
 linkingconstraint(56):  - 12 x(6,10) + y(6,10) <= 0
 linkingconstraint(57):  - 12 x(6,11) + y(6,11) <= 0
 linkingconstraint(58):  - 12 x(6,12) + y(6,12) <= 0
 linkingconstraint(59):  - 12 x(6,13) + y(6,13) <= 0
 linkingconstraint(60):  - 12 x(6,14) + y(6,14) <= 0
 linkingconstraint(61):  - 12 x(7,2) + y(7,2) <= 0
 linkingconstraint(62):  - 12 x(7,3) + y(7,3) <= 0
 linkingconstraint(63):  - 12 x(7,4) + y(7,4) <= 0
 linkingconstraint(64):  - 12 x(7,5) + y(7,5) <= 0
 linkingconstraint(65):  - 12 x(7,6) + y(7,6) <= 0
 linkingconstraint(66):  - 12 x(7,8) + y(7,8) <= 0
 linkingconstraint(67):  - 12 x(7,9) + y(7,9) <= 0
 linkingconstraint(68):  - 12 x(7,10) + y(7,10) <= 0
 linkingconstraint(69):  - 12 x(7,11) + y(7,11) <= 0
 linkingconstraint(70):  - 12 x(7,12) + y(7,12) <= 0
 linkingconstraint(71):  - 12 x(7,13) + y(7,13) <= 0
 linkingconstraint(72):  - 12 x(7,14) + y(7,14) <= 0
 linkingconstraint(73):  - 12 x(8,2) + y(8,2) <= 0
 linkingconstraint(74):  - 12 x(8,3) + y(8,3) <= 0
 linkingconstraint(75):  - 12 x(8,4) + y(8,4) <= 0
 linkingconstraint(76):  - 12 x(8,5) + y(8,5) <= 0
 linkingconstraint(77):  - 12 x(8,6) + y(8,6) <= 0
 linkingconstraint(78):  - 12 x(8,7) + y(8,7) <= 0
 linkingconstraint(79):  - 12 x(8,9) + y(8,9) <= 0
 linkingconstraint(80):  - 12 x(8,10) + y(8,10) <= 0
 linkingconstraint(81):  - 12 x(8,11) + y(8,11) <= 0
 linkingconstraint(82):  - 12 x(8,12) + y(8,12) <= 0
 linkingconstraint(83):  - 12 x(8,13) + y(8,13) <= 0
 linkingconstraint(84):  - 12 x(8,14) + y(8,14) <= 0
 linkingconstraint(85):  - 12 x(9,2) + y(9,2) <= 0
 linkingconstraint(86):  - 12 x(9,3) + y(9,3) <= 0
 linkingconstraint(87):  - 12 x(9,4) + y(9,4) <= 0
 linkingconstraint(88):  - 12 x(9,5) + y(9,5) <= 0
 linkingconstraint(89):  - 12 x(9,6) + y(9,6) <= 0
 linkingconstraint(90):  - 12 x(9,7) + y(9,7) <= 0
 linkingconstraint(91):  - 12 x(9,8) + y(9,8) <= 0
 linkingconstraint(92):  - 12 x(9,10) + y(9,10) <= 0
 linkingconstraint(93):  - 12 x(9,11) + y(9,11) <= 0
 linkingconstraint(94):  - 12 x(9,12) + y(9,12) <= 0
 linkingconstraint(95):  - 12 x(9,13) + y(9,13) <= 0
 linkingconstraint(96):  - 12 x(9,14) + y(9,14) <= 0
 linkingconstraint(97):  - 12 x(10,2) + y(10,2) <= 0
 linkingconstraint(98):  - 12 x(10,3) + y(10,3) <= 0
 linkingconstraint(99):  - 12 x(10,4) + y(10,4) <= 0
 linkingconstraint(100): - 12 x(10,5) + y(10,5) <= 0
 linkingconstraint(101): - 12 x(10,6) + y(10,6) <= 0
 linkingconstraint(102): - 12 x(10,7) + y(10,7) <= 0
 linkingconstraint(103): - 12 x(10,8) + y(10,8) <= 0
 linkingconstraint(104): - 12 x(10,9) + y(10,9) <= 0
 linkingconstraint(105): - 12 x(10,11) + y(10,11) <= 0
 linkingconstraint(106): - 12 x(10,12) + y(10,12) <= 0
 linkingconstraint(107): - 12 x(10,13) + y(10,13) <= 0
 linkingconstraint(108): - 12 x(10,14) + y(10,14) <= 0
 linkingconstraint(109): - 12 x(11,2) + y(11,2) <= 0
 linkingconstraint(110): - 12 x(11,3) + y(11,3) <= 0
 linkingconstraint(111): - 12 x(11,4) + y(11,4) <= 0
 linkingconstraint(112): - 12 x(11,5) + y(11,5) <= 0
 linkingconstraint(113): - 12 x(11,6) + y(11,6) <= 0
 linkingconstraint(114): - 12 x(11,7) + y(11,7) <= 0
 linkingconstraint(115): - 12 x(11,8) + y(11,8) <= 0
 linkingconstraint(116): - 12 x(11,9) + y(11,9) <= 0
 linkingconstraint(117): - 12 x(11,10) + y(11,10) <= 0
 linkingconstraint(118): - 12 x(11,12) + y(11,12) <= 0
 linkingconstraint(119): - 12 x(11,13) + y(11,13) <= 0
 linkingconstraint(120): - 12 x(11,14) + y(11,14) <= 0
 linkingconstraint(121): - 12 x(12,2) + y(12,2) <= 0
 linkingconstraint(122): - 12 x(12,3) + y(12,3) <= 0
 linkingconstraint(123): - 12 x(12,4) + y(12,4) <= 0
 linkingconstraint(124): - 12 x(12,5) + y(12,5) <= 0
 linkingconstraint(125): - 12 x(12,6) + y(12,6) <= 0
 linkingconstraint(126): - 12 x(12,7) + y(12,7) <= 0
 linkingconstraint(127): - 12 x(12,8) + y(12,8) <= 0
 linkingconstraint(128): - 12 x(12,9) + y(12,9) <= 0
 linkingconstraint(129): - 12 x(12,10) + y(12,10) <= 0
 linkingconstraint(130): - 12 x(12,11) + y(12,11) <= 0
 linkingconstraint(131): - 12 x(12,13) + y(12,13) <= 0
 linkingconstraint(132): - 12 x(12,14) + y(12,14) <= 0
 linkingconstraint(133): - 12 x(13,2) + y(13,2) <= 0
 linkingconstraint(134): - 12 x(13,3) + y(13,3) <= 0
 linkingconstraint(135): - 12 x(13,4) + y(13,4) <= 0
 linkingconstraint(136): - 12 x(13,5) + y(13,5) <= 0
 linkingconstraint(137): - 12 x(13,6) + y(13,6) <= 0
 linkingconstraint(138): - 12 x(13,7) + y(13,7) <= 0
 linkingconstraint(139): - 12 x(13,8) + y(13,8) <= 0
 linkingconstraint(140): - 12 x(13,9) + y(13,9) <= 0
 linkingconstraint(141): - 12 x(13,10) + y(13,10) <= 0
 linkingconstraint(142): - 12 x(13,11) + y(13,11) <= 0
 linkingconstraint(143): - 12 x(13,12) + y(13,12) <= 0
 linkingconstraint(144): - 12 x(13,14) + y(13,14) <= 0
 linkingconstraint(145): - 12 x(14,2) + y(14,2) <= 0
 linkingconstraint(146): - 12 x(14,3) + y(14,3) <= 0
 linkingconstraint(147): - 12 x(14,4) + y(14,4) <= 0
 linkingconstraint(148): - 12 x(14,5) + y(14,5) <= 0
 linkingconstraint(149): - 12 x(14,6) + y(14,6) <= 0
 linkingconstraint(150): - 12 x(14,7) + y(14,7) <= 0
 linkingconstraint(151): - 12 x(14,8) + y(14,8) <= 0
 linkingconstraint(152): - 12 x(14,9) + y(14,9) <= 0
 linkingconstraint(153): - 12 x(14,10) + y(14,10) <= 0
 linkingconstraint(154): - 12 x(14,11) + y(14,11) <= 0
 linkingconstraint(155): - 12 x(14,12) + y(14,12) <= 0
 linkingconstraint(156): - 12 x(14,13) + y(14,13) <= 0
Bounds
      x(1,1) = 0
 0 <= x(1,2) <= 1
 0 <= x(1,3) <= 1
 0 <= x(1,4) <= 1
 0 <= x(1,5) <= 1
 0 <= x(1,6) <= 1
 0 <= x(1,7) <= 1
 0 <= x(1,8) <= 1
 0 <= x(1,9) <= 1
 0 <= x(1,10) <= 1
 0 <= x(1,11) <= 1
 0 <= x(1,12) <= 1
 0 <= x(1,13) <= 1
 0 <= x(1,14) <= 1
 0 <= x(2,1) <= 1
      x(2,2) = 0
 0 <= x(2,3) <= 1
 0 <= x(2,4) <= 1
 0 <= x(2,5) <= 1
 0 <= x(2,6) <= 1
 0 <= x(2,7) <= 1
 0 <= x(2,8) <= 1
 0 <= x(2,9) <= 1
 0 <= x(2,10) <= 1
 0 <= x(2,11) <= 1
 0 <= x(2,12) <= 1
 0 <= x(2,13) <= 1
 0 <= x(2,14) <= 1
 0 <= x(3,1) <= 1
 0 <= x(3,2) <= 1
      x(3,3) = 0
 0 <= x(3,4) <= 1
 0 <= x(3,5) <= 1
 0 <= x(3,6) <= 1
 0 <= x(3,7) <= 1
 0 <= x(3,8) <= 1
 0 <= x(3,9) <= 1
 0 <= x(3,10) <= 1
 0 <= x(3,11) <= 1
 0 <= x(3,12) <= 1
 0 <= x(3,13) <= 1
 0 <= x(3,14) <= 1
 0 <= x(4,1) <= 1
 0 <= x(4,2) <= 1
 0 <= x(4,3) <= 1
      x(4,4) = 0
 0 <= x(4,5) <= 1
 0 <= x(4,6) <= 1
 0 <= x(4,7) <= 1
 0 <= x(4,8) <= 1
 0 <= x(4,9) <= 1
 0 <= x(4,10) <= 1
 0 <= x(4,11) <= 1
 0 <= x(4,12) <= 1
 0 <= x(4,13) <= 1
 0 <= x(4,14) <= 1
 0 <= x(5,1) <= 1
 0 <= x(5,2) <= 1
 0 <= x(5,3) <= 1
 0 <= x(5,4) <= 1
      x(5,5) = 0
 0 <= x(5,6) <= 1
 0 <= x(5,7) <= 1
 0 <= x(5,8) <= 1
 0 <= x(5,9) <= 1
 0 <= x(5,10) <= 1
 0 <= x(5,11) <= 1
 0 <= x(5,12) <= 1
 0 <= x(5,13) <= 1
 0 <= x(5,14) <= 1
 0 <= x(6,1) <= 1
 0 <= x(6,2) <= 1
 0 <= x(6,3) <= 1
 0 <= x(6,4) <= 1
 0 <= x(6,5) <= 1
      x(6,6) = 0
 0 <= x(6,7) <= 1
 0 <= x(6,8) <= 1
 0 <= x(6,9) <= 1
 0 <= x(6,10) <= 1
 0 <= x(6,11) <= 1
 0 <= x(6,12) <= 1
 0 <= x(6,13) <= 1
 0 <= x(6,14) <= 1
 0 <= x(7,1) <= 1
 0 <= x(7,2) <= 1
 0 <= x(7,3) <= 1
 0 <= x(7,4) <= 1
 0 <= x(7,5) <= 1
 0 <= x(7,6) <= 1
      x(7,7) = 0
 0 <= x(7,8) <= 1
 0 <= x(7,9) <= 1
 0 <= x(7,10) <= 1
 0 <= x(7,11) <= 1
 0 <= x(7,12) <= 1
 0 <= x(7,13) <= 1
 0 <= x(7,14) <= 1
 0 <= x(8,1) <= 1
 0 <= x(8,2) <= 1
 0 <= x(8,3) <= 1
 0 <= x(8,4) <= 1
 0 <= x(8,5) <= 1
 0 <= x(8,6) <= 1
 0 <= x(8,7) <= 1
      x(8,8) = 0
 0 <= x(8,9) <= 1
 0 <= x(8,10) <= 1
 0 <= x(8,11) <= 1
 0 <= x(8,12) <= 1
 0 <= x(8,13) <= 1
 0 <= x(8,14) <= 1
 0 <= x(9,1) <= 1
 0 <= x(9,2) <= 1
 0 <= x(9,3) <= 1
 0 <= x(9,4) <= 1
 0 <= x(9,5) <= 1
 0 <= x(9,6) <= 1
 0 <= x(9,7) <= 1
 0 <= x(9,8) <= 1
      x(9,9) = 0
 0 <= x(9,10) <= 1
 0 <= x(9,11) <= 1
 0 <= x(9,12) <= 1
 0 <= x(9,13) <= 1
 0 <= x(9,14) <= 1
 0 <= x(10,1) <= 1
 0 <= x(10,2) <= 1
 0 <= x(10,3) <= 1
 0 <= x(10,4) <= 1
 0 <= x(10,5) <= 1
 0 <= x(10,6) <= 1
 0 <= x(10,7) <= 1
 0 <= x(10,8) <= 1
 0 <= x(10,9) <= 1
      x(10,10) = 0
 0 <= x(10,11) <= 1
 0 <= x(10,12) <= 1
 0 <= x(10,13) <= 1
 0 <= x(10,14) <= 1
 0 <= x(11,1) <= 1
 0 <= x(11,2) <= 1
 0 <= x(11,3) <= 1
 0 <= x(11,4) <= 1
 0 <= x(11,5) <= 1
 0 <= x(11,6) <= 1
 0 <= x(11,7) <= 1
 0 <= x(11,8) <= 1
 0 <= x(11,9) <= 1
 0 <= x(11,10) <= 1
      x(11,11) = 0
 0 <= x(11,12) <= 1
 0 <= x(11,13) <= 1
 0 <= x(11,14) <= 1
 0 <= x(12,1) <= 1
 0 <= x(12,2) <= 1
 0 <= x(12,3) <= 1
 0 <= x(12,4) <= 1
 0 <= x(12,5) <= 1
 0 <= x(12,6) <= 1
 0 <= x(12,7) <= 1
 0 <= x(12,8) <= 1
 0 <= x(12,9) <= 1
 0 <= x(12,10) <= 1
 0 <= x(12,11) <= 1
      x(12,12) = 0
 0 <= x(12,13) <= 1
 0 <= x(12,14) <= 1
 0 <= x(13,1) <= 1
 0 <= x(13,2) <= 1
 0 <= x(13,3) <= 1
 0 <= x(13,4) <= 1
 0 <= x(13,5) <= 1
 0 <= x(13,6) <= 1
 0 <= x(13,7) <= 1
 0 <= x(13,8) <= 1
 0 <= x(13,9) <= 1
 0 <= x(13,10) <= 1
 0 <= x(13,11) <= 1
 0 <= x(13,12) <= 1
      x(13,13) = 0
 0 <= x(13,14) <= 1
 0 <= x(14,1) <= 1
 0 <= x(14,2) <= 1
 0 <= x(14,3) <= 1
 0 <= x(14,4) <= 1
 0 <= x(14,5) <= 1
 0 <= x(14,6) <= 1
 0 <= x(14,7) <= 1
 0 <= x(14,8) <= 1
 0 <= x(14,9) <= 1
 0 <= x(14,10) <= 1
 0 <= x(14,11) <= 1
 0 <= x(14,12) <= 1
 0 <= x(14,13) <= 1
      x(14,14) = 0
      y(1,1) = 0
 0 <= y(1,2) <= 13
 0 <= y(1,3) <= 13
 0 <= y(1,4) <= 13
 0 <= y(1,5) <= 13
 0 <= y(1,6) <= 13
 0 <= y(1,7) <= 13
 0 <= y(1,8) <= 13
 0 <= y(1,9) <= 13
 0 <= y(1,10) <= 13
 0 <= y(1,11) <= 13
 0 <= y(1,12) <= 13
 0 <= y(1,13) <= 13
 0 <= y(1,14) <= 13
      y(2,1) = 0
      y(2,2) = 0
 0 <= y(2,3) <= 13
 0 <= y(2,4) <= 13
 0 <= y(2,5) <= 13
 0 <= y(2,6) <= 13
 0 <= y(2,7) <= 13
 0 <= y(2,8) <= 13
 0 <= y(2,9) <= 13
 0 <= y(2,10) <= 13
 0 <= y(2,11) <= 13
 0 <= y(2,12) <= 13
 0 <= y(2,13) <= 13
 0 <= y(2,14) <= 13
      y(3,1) = 0
 0 <= y(3,2) <= 13
      y(3,3) = 0
 0 <= y(3,4) <= 13
 0 <= y(3,5) <= 13
 0 <= y(3,6) <= 13
 0 <= y(3,7) <= 13
 0 <= y(3,8) <= 13
 0 <= y(3,9) <= 13
 0 <= y(3,10) <= 13
 0 <= y(3,11) <= 13
 0 <= y(3,12) <= 13
 0 <= y(3,13) <= 13
 0 <= y(3,14) <= 13
      y(4,1) = 0
 0 <= y(4,2) <= 13
 0 <= y(4,3) <= 13
      y(4,4) = 0
 0 <= y(4,5) <= 13
 0 <= y(4,6) <= 13
 0 <= y(4,7) <= 13
 0 <= y(4,8) <= 13
 0 <= y(4,9) <= 13
 0 <= y(4,10) <= 13
 0 <= y(4,11) <= 13
 0 <= y(4,12) <= 13
 0 <= y(4,13) <= 13
 0 <= y(4,14) <= 13
      y(5,1) = 0
 0 <= y(5,2) <= 13
 0 <= y(5,3) <= 13
 0 <= y(5,4) <= 13
      y(5,5) = 0
 0 <= y(5,6) <= 13
 0 <= y(5,7) <= 13
 0 <= y(5,8) <= 13
 0 <= y(5,9) <= 13
 0 <= y(5,10) <= 13
 0 <= y(5,11) <= 13
 0 <= y(5,12) <= 13
 0 <= y(5,13) <= 13
 0 <= y(5,14) <= 13
      y(6,1) = 0
 0 <= y(6,2) <= 13
 0 <= y(6,3) <= 13
 0 <= y(6,4) <= 13
 0 <= y(6,5) <= 13
      y(6,6) = 0
 0 <= y(6,7) <= 13
 0 <= y(6,8) <= 13
 0 <= y(6,9) <= 13
 0 <= y(6,10) <= 13
 0 <= y(6,11) <= 13
 0 <= y(6,12) <= 13
 0 <= y(6,13) <= 13
 0 <= y(6,14) <= 13
      y(7,1) = 0
 0 <= y(7,2) <= 13
 0 <= y(7,3) <= 13
 0 <= y(7,4) <= 13
 0 <= y(7,5) <= 13
 0 <= y(7,6) <= 13
      y(7,7) = 0
 0 <= y(7,8) <= 13
 0 <= y(7,9) <= 13
 0 <= y(7,10) <= 13
 0 <= y(7,11) <= 13
 0 <= y(7,12) <= 13
 0 <= y(7,13) <= 13
 0 <= y(7,14) <= 13
      y(8,1) = 0
 0 <= y(8,2) <= 13
 0 <= y(8,3) <= 13
 0 <= y(8,4) <= 13
 0 <= y(8,5) <= 13
 0 <= y(8,6) <= 13
 0 <= y(8,7) <= 13
      y(8,8) = 0
 0 <= y(8,9) <= 13
 0 <= y(8,10) <= 13
 0 <= y(8,11) <= 13
 0 <= y(8,12) <= 13
 0 <= y(8,13) <= 13
 0 <= y(8,14) <= 13
      y(9,1) = 0
 0 <= y(9,2) <= 13
 0 <= y(9,3) <= 13
 0 <= y(9,4) <= 13
 0 <= y(9,5) <= 13
 0 <= y(9,6) <= 13
 0 <= y(9,7) <= 13
 0 <= y(9,8) <= 13
      y(9,9) = 0
 0 <= y(9,10) <= 13
 0 <= y(9,11) <= 13
 0 <= y(9,12) <= 13
 0 <= y(9,13) <= 13
 0 <= y(9,14) <= 13
      y(10,1) = 0
 0 <= y(10,2) <= 13
 0 <= y(10,3) <= 13
 0 <= y(10,4) <= 13
 0 <= y(10,5) <= 13
 0 <= y(10,6) <= 13
 0 <= y(10,7) <= 13
 0 <= y(10,8) <= 13
 0 <= y(10,9) <= 13
      y(10,10) = 0
 0 <= y(10,11) <= 13
 0 <= y(10,12) <= 13
 0 <= y(10,13) <= 13
 0 <= y(10,14) <= 13
      y(11,1) = 0
 0 <= y(11,2) <= 13
 0 <= y(11,3) <= 13
 0 <= y(11,4) <= 13
 0 <= y(11,5) <= 13
 0 <= y(11,6) <= 13
 0 <= y(11,7) <= 13
 0 <= y(11,8) <= 13
 0 <= y(11,9) <= 13
 0 <= y(11,10) <= 13
      y(11,11) = 0
 0 <= y(11,12) <= 13
 0 <= y(11,13) <= 13
 0 <= y(11,14) <= 13
      y(12,1) = 0
 0 <= y(12,2) <= 13
 0 <= y(12,3) <= 13
 0 <= y(12,4) <= 13
 0 <= y(12,5) <= 13
 0 <= y(12,6) <= 13
 0 <= y(12,7) <= 13
 0 <= y(12,8) <= 13
 0 <= y(12,9) <= 13
 0 <= y(12,10) <= 13
 0 <= y(12,11) <= 13
      y(12,12) = 0
 0 <= y(12,13) <= 13
 0 <= y(12,14) <= 13
      y(13,1) = 0
 0 <= y(13,2) <= 13
 0 <= y(13,3) <= 13
 0 <= y(13,4) <= 13
 0 <= y(13,5) <= 13
 0 <= y(13,6) <= 13
 0 <= y(13,7) <= 13
 0 <= y(13,8) <= 13
 0 <= y(13,9) <= 13
 0 <= y(13,10) <= 13
 0 <= y(13,11) <= 13
 0 <= y(13,12) <= 13
      y(13,13) = 0
 0 <= y(13,14) <= 13
      y(14,1) = 0
 0 <= y(14,2) <= 13
 0 <= y(14,3) <= 13
 0 <= y(14,4) <= 13
 0 <= y(14,5) <= 13
 0 <= y(14,6) <= 13
 0 <= y(14,7) <= 13
 0 <= y(14,8) <= 13
 0 <= y(14,9) <= 13
 0 <= y(14,10) <= 13
 0 <= y(14,11) <= 13
 0 <= y(14,12) <= 13
 0 <= y(14,13) <= 13
      y(14,14) = 0
Binaries
 x(1,1)  x(1,2)  x(1,3)  x(1,4)  x(1,5)  x(1,6)  x(1,7)  x(1,8)  x(1,9) 
 x(1,10)  x(1,11)  x(1,12)  x(1,13)  x(1,14)  x(2,1)  x(2,2)  x(2,3)  x(2,4) 
 x(2,5)  x(2,6)  x(2,7)  x(2,8)  x(2,9)  x(2,10)  x(2,11)  x(2,12)  x(2,13) 
 x(2,14)  x(3,1)  x(3,2)  x(3,3)  x(3,4)  x(3,5)  x(3,6)  x(3,7)  x(3,8) 
 x(3,9)  x(3,10)  x(3,11)  x(3,12)  x(3,13)  x(3,14)  x(4,1)  x(4,2)  x(4,3) 
 x(4,4)  x(4,5)  x(4,6)  x(4,7)  x(4,8)  x(4,9)  x(4,10)  x(4,11)  x(4,12) 
 x(4,13)  x(4,14)  x(5,1)  x(5,2)  x(5,3)  x(5,4)  x(5,5)  x(5,6)  x(5,7) 
 x(5,8)  x(5,9)  x(5,10)  x(5,11)  x(5,12)  x(5,13)  x(5,14)  x(6,1)  x(6,2) 
 x(6,3)  x(6,4)  x(6,5)  x(6,6)  x(6,7)  x(6,8)  x(6,9)  x(6,10)  x(6,11) 
 x(6,12)  x(6,13)  x(6,14)  x(7,1)  x(7,2)  x(7,3)  x(7,4)  x(7,5)  x(7,6) 
 x(7,7)  x(7,8)  x(7,9)  x(7,10)  x(7,11)  x(7,12)  x(7,13)  x(7,14)  x(8,1) 
 x(8,2)  x(8,3)  x(8,4)  x(8,5)  x(8,6)  x(8,7)  x(8,8)  x(8,9)  x(8,10) 
 x(8,11)  x(8,12)  x(8,13)  x(8,14)  x(9,1)  x(9,2)  x(9,3)  x(9,4)  x(9,5) 
 x(9,6)  x(9,7)  x(9,8)  x(9,9)  x(9,10)  x(9,11)  x(9,12)  x(9,13)  x(9,14) 
 x(10,1)  x(10,2)  x(10,3)  x(10,4)  x(10,5)  x(10,6)  x(10,7)  x(10,8) 
 x(10,9)  x(10,10)  x(10,11)  x(10,12)  x(10,13)  x(10,14)  x(11,1)  x(11,2) 
 x(11,3)  x(11,4)  x(11,5)  x(11,6)  x(11,7)  x(11,8)  x(11,9)  x(11,10) 
 x(11,11)  x(11,12)  x(11,13)  x(11,14)  x(12,1)  x(12,2)  x(12,3)  x(12,4) 
 x(12,5)  x(12,6)  x(12,7)  x(12,8)  x(12,9)  x(12,10)  x(12,11)  x(12,12) 
 x(12,13)  x(12,14)  x(13,1)  x(13,2)  x(13,3)  x(13,4)  x(13,5)  x(13,6) 
 x(13,7)  x(13,8)  x(13,9)  x(13,10)  x(13,11)  x(13,12)  x(13,13)  x(13,14) 
 x(14,1)  x(14,2)  x(14,3)  x(14,4)  x(14,5)  x(14,6)  x(14,7)  x(14,8) 
 x(14,9)  x(14,10)  x(14,11)  x(14,12)  x(14,13)  x(14,14) 
Generals
 y(1,1)  y(1,2)  y(1,3)  y(1,4)  y(1,5)  y(1,6)  y(1,7)  y(1,8)  y(1,9) 
 y(1,10)  y(1,11)  y(1,12)  y(1,13)  y(1,14)  y(2,1)  y(2,2)  y(2,3)  y(2,4) 
 y(2,5)  y(2,6)  y(2,7)  y(2,8)  y(2,9)  y(2,10)  y(2,11)  y(2,12)  y(2,13) 
 y(2,14)  y(3,1)  y(3,2)  y(3,3)  y(3,4)  y(3,5)  y(3,6)  y(3,7)  y(3,8) 
 y(3,9)  y(3,10)  y(3,11)  y(3,12)  y(3,13)  y(3,14)  y(4,1)  y(4,2)  y(4,3) 
 y(4,4)  y(4,5)  y(4,6)  y(4,7)  y(4,8)  y(4,9)  y(4,10)  y(4,11)  y(4,12) 
 y(4,13)  y(4,14)  y(5,1)  y(5,2)  y(5,3)  y(5,4)  y(5,5)  y(5,6)  y(5,7) 
 y(5,8)  y(5,9)  y(5,10)  y(5,11)  y(5,12)  y(5,13)  y(5,14)  y(6,1)  y(6,2) 
 y(6,3)  y(6,4)  y(6,5)  y(6,6)  y(6,7)  y(6,8)  y(6,9)  y(6,10)  y(6,11) 
 y(6,12)  y(6,13)  y(6,14)  y(7,1)  y(7,2)  y(7,3)  y(7,4)  y(7,5)  y(7,6) 
 y(7,7)  y(7,8)  y(7,9)  y(7,10)  y(7,11)  y(7,12)  y(7,13)  y(7,14)  y(8,1) 
 y(8,2)  y(8,3)  y(8,4)  y(8,5)  y(8,6)  y(8,7)  y(8,8)  y(8,9)  y(8,10) 
 y(8,11)  y(8,12)  y(8,13)  y(8,14)  y(9,1)  y(9,2)  y(9,3)  y(9,4)  y(9,5) 
 y(9,6)  y(9,7)  y(9,8)  y(9,9)  y(9,10)  y(9,11)  y(9,12)  y(9,13)  y(9,14) 
 y(10,1)  y(10,2)  y(10,3)  y(10,4)  y(10,5)  y(10,6)  y(10,7)  y(10,8) 
 y(10,9)  y(10,10)  y(10,11)  y(10,12)  y(10,13)  y(10,14)  y(11,1)  y(11,2) 
 y(11,3)  y(11,4)  y(11,5)  y(11,6)  y(11,7)  y(11,8)  y(11,9)  y(11,10) 
 y(11,11)  y(11,12)  y(11,13)  y(11,14)  y(12,1)  y(12,2)  y(12,3)  y(12,4) 
 y(12,5)  y(12,6)  y(12,7)  y(12,8)  y(12,9)  y(12,10)  y(12,11)  y(12,12) 
 y(12,13)  y(12,14)  y(13,1)  y(13,2)  y(13,3)  y(13,4)  y(13,5)  y(13,6) 
 y(13,7)  y(13,8)  y(13,9)  y(13,10)  y(13,11)  y(13,12)  y(13,13)  y(13,14) 
 y(14,1)  y(14,2)  y(14,3)  y(14,4)  y(14,5)  y(14,6)  y(14,7)  y(14,8) 
 y(14,9)  y(14,10)  y(14,11)  y(14,12)  y(14,13)  y(14,14) 
End
